15
2 1 1
3 2 1
4 0 1
4 2 1
5 1 1
5 2 1
5 3 1
6 0 1
6 1 1
7 0 1
7 1 1
7 2 1
7 3 1
7 4 1
7 5 1
8 0 1
8 4 1
8 6 1
9 0 1
9 1 1
9 2 1
9 4 1
9 5 1
9 6 1
9 8 1
10 2 1
10 4 1
10 5 1
10 7 1
10 9 1
11 4 1
11 8 1
11 9 1
11 10 1
12 0 1
12 3 1
12 6 1
12 9 1
12 10 1
13 1 1
13 5 1
13 8 1
13 12 1
14 1 1
14 2 1
14 3 1
14 4 1
14 9 1
14 10 1
14 11 1
14 12 1
